(declare-const a Real)
(declare-const b Real)
(declare-const c Real)
(assert (= (+ (pow a 2) (pow b 2) (pow c 2)) 12))
(assert (> a 0))
(assert (> b 0))
(assert (> c 0))
(assert (not (<= (+ (* 96 (pow b 3)) (* 96 (pow c 3)) (* -128 (pow a 2) (pow (+ (* 3 (pow a 2)) (* 3 (pow b 2)) (* 3 (pow c 2))) (/ 1 2))) (* 192 b (pow c 2)) (* 192 c (pow b 2)) (* 288 b (pow a 2)) (* 288 c (pow a 2)) (* (pow (* (pow b b) (pow c c) (pow c (* 2 b))) (pow (+ c (* 3 b)) -1)) (pow (+ (* 3 (pow a 2)) (* 3 (pow b 2)) (* 3 (pow c 2))) (/ 1 2)) (+ (* -192 b) (* -64 c)))) 0)))
(check-sat)
(get-model)
(exit)